209
36
58
372
101
0
60
94
30
0
36
21
0
48
33
140
31
0
130
0
45
85
0
53
89
374
55
69
23
47
0
86
22
116
77
16
26
178
44
39
27
403
17
39
31
59
52
22
41
57
36
110
32
189
60
24
163
30
68
226
21
0
39
20
21
16
55
63
330
38
343
410
135
143
531
53
78
77
33
66
0
96
0
23
38
284
31
170
21
81
84
151
443
102
28
214
19
0
64
66
